27040
1 0 1 1 1 0 0 0 0 1 0 0 1 0 0 0 1 0 1 1 1 0 0 0 0 1 0 1 0 0 
18 19 2 27 2 12 2 27 18 27 4 19 20 3 19 18 3 20 27 0 18 16 2 0 20 18 27 19 4 2 19 19 4 16 27 12 20 9 16 16 18 9 12 4 20 19 3 2 19 20 0 16 2 16 20 12 25 9 18 25 4 0 18 20 3 25 2 19 19 25 18 12 19 9 0 20 20 0 20 16 20 0 9 25 4 20 19 2 27 25 27 19 25 25 2 3 27 12 0 19 19 16 25 18 4 0 4 27 27 3 19 4 27 12 12 20 27 25 0 20 9 25 0 19 9 16 2 12 19 0 27 16 25 20 3 9 3 3 0 20 12 27 12 25 25 2 16 16 27 25 27 0 20 0 20 12 2 16 3 3 3 27 3 2 2 27 2 4 3 2 3 9 19 9 4 0 0 9 4 9 0 16 0 19 12 9 12 20 0 16 2 16 12 4 25 12 25 16 0 19 
